NAME /Users/henri/Research/solvers/instances/idol-instances/robust/collection/spp_dkp_Lefebvre_et_al_2026/shortest_path_9_1/uncertainty_sets/discrete_knapsack
ROWS
 N  OBJ
 L  primal_lower
COLUMNS
    MARKER    'MARKER'                 'INTORG'
    y[0,2]     OBJ        0
    y[0,2]     primal_lower -0.57
    y[0,3]     OBJ        0
    y[0,3]     primal_lower -3.03
    y[0,5]     OBJ        0
    y[0,5]     primal_lower -0.66
    y[0,6]     OBJ        0
    y[0,6]     primal_lower -1.2
    y[0,7]     OBJ        0
    y[0,7]     primal_lower -1.63
    y[0,8]     OBJ        0
    y[0,8]     primal_lower -4.28
    y[1,2]     OBJ        0
    y[1,2]     primal_lower -3.32
    y[1,3]     OBJ        0
    y[1,3]     primal_lower -2.7
    y[1,4]     OBJ        0
    y[1,4]     primal_lower -0.14
    y[1,6]     OBJ        0
    y[1,6]     primal_lower -3.66
    y[1,8]     OBJ        0
    y[1,8]     primal_lower -1.97
    y[2,0]     OBJ        0
    y[2,0]     primal_lower -4
    y[2,1]     OBJ        0
    y[2,1]     primal_lower -1.27
    y[2,3]     OBJ        0
    y[2,3]     primal_lower -0.28
    y[2,4]     OBJ        0
    y[2,4]     primal_lower -4.32
    y[2,5]     OBJ        0
    y[2,5]     primal_lower -1.1
    y[2,6]     OBJ        0
    y[2,6]     primal_lower -2.02
    y[2,7]     OBJ        0
    y[2,7]     primal_lower -1.58
    y[2,8]     OBJ        0
    y[2,8]     primal_lower -0.38
    y[3,0]     OBJ        0
    y[3,0]     primal_lower -4.2
    y[3,1]     OBJ        0
    y[3,1]     primal_lower -4.23
    y[3,2]     OBJ        0
    y[3,2]     primal_lower -4.84
    y[3,4]     OBJ        0
    y[3,4]     primal_lower -1.92
    y[3,5]     OBJ        0
    y[3,5]     primal_lower -4.76
    y[3,6]     OBJ        0
    y[3,6]     primal_lower -2.22
    y[3,8]     OBJ        0
    y[3,8]     primal_lower -3.34
    y[4,1]     OBJ        0
    y[4,1]     primal_lower -0.41
    y[4,2]     OBJ        0
    y[4,2]     primal_lower -4.47
    y[4,3]     OBJ        0
    y[4,3]     primal_lower -1.48
    y[4,6]     OBJ        0
    y[4,6]     primal_lower -1.31
    y[4,8]     OBJ        0
    y[4,8]     primal_lower -0.03
    y[5,0]     OBJ        0
    y[5,0]     primal_lower -2.71
    y[5,2]     OBJ        0
    y[5,2]     primal_lower -2.37
    y[5,3]     OBJ        0
    y[5,3]     primal_lower -3.17
    y[5,6]     OBJ        0
    y[5,6]     primal_lower -4.87
    y[5,7]     OBJ        0
    y[5,7]     primal_lower -4.53
    y[5,8]     OBJ        0
    y[5,8]     primal_lower -4.54
    y[6,0]     OBJ        0
    y[6,0]     primal_lower -2.62
    y[6,1]     OBJ        0
    y[6,1]     primal_lower -0.52
    y[6,2]     OBJ        0
    y[6,2]     primal_lower -0.9
    y[6,3]     OBJ        0
    y[6,3]     primal_lower -4.75
    y[6,4]     OBJ        0
    y[6,4]     primal_lower -2.05
    y[6,5]     OBJ        0
    y[6,5]     primal_lower -4.31
    y[6,7]     OBJ        0
    y[6,7]     primal_lower -3.35
    y[6,8]     OBJ        0
    y[6,8]     primal_lower -3.13
    y[7,0]     OBJ        0
    y[7,0]     primal_lower -1.37
    y[7,2]     OBJ        0
    y[7,2]     primal_lower -4.47
    y[7,5]     OBJ        0
    y[7,5]     primal_lower -1.03
    y[7,6]     OBJ        0
    y[7,6]     primal_lower -2.02
    y[7,8]     OBJ        0
    y[7,8]     primal_lower -4.95
    y[8,0]     OBJ        0
    y[8,0]     primal_lower -3.67
    y[8,1]     OBJ        0
    y[8,1]     primal_lower -2.22
    y[8,2]     OBJ        0
    y[8,2]     primal_lower -2.79
    y[8,3]     OBJ        0
    y[8,3]     primal_lower -2.05
    y[8,4]     OBJ        0
    y[8,4]     primal_lower -3.62
    y[8,5]     OBJ        0
    y[8,5]     primal_lower -1.99
    y[8,6]     OBJ        0
    y[8,6]     primal_lower -3.34
    y[8,7]     OBJ        0
    y[8,7]     primal_lower -3.51
    u[0,2]     OBJ        0
    u[0,2]     primal_lower 58
    u[0,3]     OBJ        0
    u[0,3]     primal_lower 35
    u[0,5]     OBJ        0
    u[0,5]     primal_lower 35
    u[0,6]     OBJ        0
    u[0,6]     primal_lower 51
    u[0,7]     OBJ        0
    u[0,7]     primal_lower 73
    u[0,8]     OBJ        0
    u[0,8]     primal_lower 49
    u[1,2]     OBJ        0
    u[1,2]     primal_lower 30
    u[1,3]     OBJ        0
    u[1,3]     primal_lower 85
    u[1,4]     OBJ        0
    u[1,4]     primal_lower 39
    u[1,6]     OBJ        0
    u[1,6]     primal_lower 82
    u[1,8]     OBJ        0
    u[1,8]     primal_lower 92
    u[2,0]     OBJ        0
    u[2,0]     primal_lower 58
    u[2,1]     OBJ        0
    u[2,1]     primal_lower 4
    u[2,3]     OBJ        0
    u[2,3]     primal_lower 58
    u[2,4]     OBJ        0
    u[2,4]     primal_lower 90
    u[2,5]     OBJ        0
    u[2,5]     primal_lower 76
    u[2,6]     OBJ        0
    u[2,6]     primal_lower 8
    u[2,7]     OBJ        0
    u[2,7]     primal_lower 95
    u[2,8]     OBJ        0
    u[2,8]     primal_lower 57
    u[3,0]     OBJ        0
    u[3,0]     primal_lower 67
    u[3,1]     OBJ        0
    u[3,1]     primal_lower 18
    u[3,2]     OBJ        0
    u[3,2]     primal_lower 96
    u[3,4]     OBJ        0
    u[3,4]     primal_lower 70
    u[3,5]     OBJ        0
    u[3,5]     primal_lower 28
    u[3,6]     OBJ        0
    u[3,6]     primal_lower 55
    u[3,8]     OBJ        0
    u[3,8]     primal_lower 24
    u[4,1]     OBJ        0
    u[4,1]     primal_lower 95
    u[4,2]     OBJ        0
    u[4,2]     primal_lower 11
    u[4,3]     OBJ        0
    u[4,3]     primal_lower 95
    u[4,6]     OBJ        0
    u[4,6]     primal_lower 24
    u[4,8]     OBJ        0
    u[4,8]     primal_lower 3
    u[5,0]     OBJ        0
    u[5,0]     primal_lower 77
    u[5,2]     OBJ        0
    u[5,2]     primal_lower 68
    u[5,3]     OBJ        0
    u[5,3]     primal_lower 51
    u[5,6]     OBJ        0
    u[5,6]     primal_lower 23
    u[5,7]     OBJ        0
    u[5,7]     primal_lower 63
    u[5,8]     OBJ        0
    u[5,8]     primal_lower 96
    u[6,0]     OBJ        0
    u[6,0]     primal_lower 27
    u[6,1]     OBJ        0
    u[6,1]     primal_lower 29
    u[6,2]     OBJ        0
    u[6,2]     primal_lower 62
    u[6,3]     OBJ        0
    u[6,3]     primal_lower 100
    u[6,4]     OBJ        0
    u[6,4]     primal_lower 6
    u[6,5]     OBJ        0
    u[6,5]     primal_lower 42
    u[6,7]     OBJ        0
    u[6,7]     primal_lower 88
    u[6,8]     OBJ        0
    u[6,8]     primal_lower 27
    u[7,0]     OBJ        0
    u[7,0]     primal_lower 25
    u[7,2]     OBJ        0
    u[7,2]     primal_lower 21
    u[7,5]     OBJ        0
    u[7,5]     primal_lower 85
    u[7,6]     OBJ        0
    u[7,6]     primal_lower 83
    u[7,8]     OBJ        0
    u[7,8]     primal_lower 58
    u[8,0]     OBJ        0
    u[8,0]     primal_lower 19
    u[8,1]     OBJ        0
    u[8,1]     primal_lower 71
    u[8,2]     OBJ        0
    u[8,2]     primal_lower 33
    u[8,3]     OBJ        0
    u[8,3]     primal_lower 69
    u[8,4]     OBJ        0
    u[8,4]     primal_lower 78
    u[8,5]     OBJ        0
    u[8,5]     primal_lower 80
    u[8,6]     OBJ        0
    u[8,6]     primal_lower 68
    u[8,7]     OBJ        0
    u[8,7]     primal_lower 71
    MARKER    'MARKER'                 'INTEND'
RHS
    RHS       primal_lower 289
BOUNDS
 LI BND       y[0,2]     0
 UI BND       y[0,2]     1
 LI BND       y[0,3]     0
 UI BND       y[0,3]     1
 LI BND       y[0,5]     0
 UI BND       y[0,5]     1
 LI BND       y[0,6]     0
 UI BND       y[0,6]     1
 LI BND       y[0,7]     0
 UI BND       y[0,7]     1
 LI BND       y[0,8]     0
 UI BND       y[0,8]     1
 LI BND       y[1,2]     0
 UI BND       y[1,2]     1
 LI BND       y[1,3]     0
 UI BND       y[1,3]     1
 LI BND       y[1,4]     0
 UI BND       y[1,4]     1
 LI BND       y[1,6]     0
 UI BND       y[1,6]     1
 LI BND       y[1,8]     0
 UI BND       y[1,8]     1
 LI BND       y[2,0]     0
 UI BND       y[2,0]     1
 LI BND       y[2,1]     0
 UI BND       y[2,1]     1
 LI BND       y[2,3]     0
 UI BND       y[2,3]     1
 LI BND       y[2,4]     0
 UI BND       y[2,4]     1
 LI BND       y[2,5]     0
 UI BND       y[2,5]     1
 LI BND       y[2,6]     0
 UI BND       y[2,6]     1
 LI BND       y[2,7]     0
 UI BND       y[2,7]     1
 LI BND       y[2,8]     0
 UI BND       y[2,8]     1
 LI BND       y[3,0]     0
 UI BND       y[3,0]     1
 LI BND       y[3,1]     0
 UI BND       y[3,1]     1
 LI BND       y[3,2]     0
 UI BND       y[3,2]     1
 LI BND       y[3,4]     0
 UI BND       y[3,4]     1
 LI BND       y[3,5]     0
 UI BND       y[3,5]     1
 LI BND       y[3,6]     0
 UI BND       y[3,6]     1
 LI BND       y[3,8]     0
 UI BND       y[3,8]     1
 LI BND       y[4,1]     0
 UI BND       y[4,1]     1
 LI BND       y[4,2]     0
 UI BND       y[4,2]     1
 LI BND       y[4,3]     0
 UI BND       y[4,3]     1
 LI BND       y[4,6]     0
 UI BND       y[4,6]     1
 LI BND       y[4,8]     0
 UI BND       y[4,8]     1
 LI BND       y[5,0]     0
 UI BND       y[5,0]     1
 LI BND       y[5,2]     0
 UI BND       y[5,2]     1
 LI BND       y[5,3]     0
 UI BND       y[5,3]     1
 LI BND       y[5,6]     0
 UI BND       y[5,6]     1
 LI BND       y[5,7]     0
 UI BND       y[5,7]     1
 LI BND       y[5,8]     0
 UI BND       y[5,8]     1
 LI BND       y[6,0]     0
 UI BND       y[6,0]     1
 LI BND       y[6,1]     0
 UI BND       y[6,1]     1
 LI BND       y[6,2]     0
 UI BND       y[6,2]     1
 LI BND       y[6,3]     0
 UI BND       y[6,3]     1
 LI BND       y[6,4]     0
 UI BND       y[6,4]     1
 LI BND       y[6,5]     0
 UI BND       y[6,5]     1
 LI BND       y[6,7]     0
 UI BND       y[6,7]     1
 LI BND       y[6,8]     0
 UI BND       y[6,8]     1
 LI BND       y[7,0]     0
 UI BND       y[7,0]     1
 LI BND       y[7,2]     0
 UI BND       y[7,2]     1
 LI BND       y[7,5]     0
 UI BND       y[7,5]     1
 LI BND       y[7,6]     0
 UI BND       y[7,6]     1
 LI BND       y[7,8]     0
 UI BND       y[7,8]     1
 LI BND       y[8,0]     0
 UI BND       y[8,0]     1
 LI BND       y[8,1]     0
 UI BND       y[8,1]     1
 LI BND       y[8,2]     0
 UI BND       y[8,2]     1
 LI BND       y[8,3]     0
 UI BND       y[8,3]     1
 LI BND       y[8,4]     0
 UI BND       y[8,4]     1
 LI BND       y[8,5]     0
 UI BND       y[8,5]     1
 LI BND       y[8,6]     0
 UI BND       y[8,6]     1
 LI BND       y[8,7]     0
 UI BND       y[8,7]     1
 LI BND       u[0,2]     0
 UI BND       u[0,2]     1
 LI BND       u[0,3]     0
 UI BND       u[0,3]     1
 LI BND       u[0,5]     0
 UI BND       u[0,5]     1
 LI BND       u[0,6]     0
 UI BND       u[0,6]     1
 LI BND       u[0,7]     0
 UI BND       u[0,7]     1
 LI BND       u[0,8]     0
 UI BND       u[0,8]     1
 LI BND       u[1,2]     0
 UI BND       u[1,2]     1
 LI BND       u[1,3]     0
 UI BND       u[1,3]     1
 LI BND       u[1,4]     0
 UI BND       u[1,4]     1
 LI BND       u[1,6]     0
 UI BND       u[1,6]     1
 LI BND       u[1,8]     0
 UI BND       u[1,8]     1
 LI BND       u[2,0]     0
 UI BND       u[2,0]     1
 LI BND       u[2,1]     0
 UI BND       u[2,1]     1
 LI BND       u[2,3]     0
 UI BND       u[2,3]     1
 LI BND       u[2,4]     0
 UI BND       u[2,4]     1
 LI BND       u[2,5]     0
 UI BND       u[2,5]     1
 LI BND       u[2,6]     0
 UI BND       u[2,6]     1
 LI BND       u[2,7]     0
 UI BND       u[2,7]     1
 LI BND       u[2,8]     0
 UI BND       u[2,8]     1
 LI BND       u[3,0]     0
 UI BND       u[3,0]     1
 LI BND       u[3,1]     0
 UI BND       u[3,1]     1
 LI BND       u[3,2]     0
 UI BND       u[3,2]     1
 LI BND       u[3,4]     0
 UI BND       u[3,4]     1
 LI BND       u[3,5]     0
 UI BND       u[3,5]     1
 LI BND       u[3,6]     0
 UI BND       u[3,6]     1
 LI BND       u[3,8]     0
 UI BND       u[3,8]     1
 LI BND       u[4,1]     0
 UI BND       u[4,1]     1
 LI BND       u[4,2]     0
 UI BND       u[4,2]     1
 LI BND       u[4,3]     0
 UI BND       u[4,3]     1
 LI BND       u[4,6]     0
 UI BND       u[4,6]     1
 LI BND       u[4,8]     0
 UI BND       u[4,8]     1
 LI BND       u[5,0]     0
 UI BND       u[5,0]     1
 LI BND       u[5,2]     0
 UI BND       u[5,2]     1
 LI BND       u[5,3]     0
 UI BND       u[5,3]     1
 LI BND       u[5,6]     0
 UI BND       u[5,6]     1
 LI BND       u[5,7]     0
 UI BND       u[5,7]     1
 LI BND       u[5,8]     0
 UI BND       u[5,8]     1
 LI BND       u[6,0]     0
 UI BND       u[6,0]     1
 LI BND       u[6,1]     0
 UI BND       u[6,1]     1
 LI BND       u[6,2]     0
 UI BND       u[6,2]     1
 LI BND       u[6,3]     0
 UI BND       u[6,3]     1
 LI BND       u[6,4]     0
 UI BND       u[6,4]     1
 LI BND       u[6,5]     0
 UI BND       u[6,5]     1
 LI BND       u[6,7]     0
 UI BND       u[6,7]     1
 LI BND       u[6,8]     0
 UI BND       u[6,8]     1
 LI BND       u[7,0]     0
 UI BND       u[7,0]     1
 LI BND       u[7,2]     0
 UI BND       u[7,2]     1
 LI BND       u[7,5]     0
 UI BND       u[7,5]     1
 LI BND       u[7,6]     0
 UI BND       u[7,6]     1
 LI BND       u[7,8]     0
 UI BND       u[7,8]     1
 LI BND       u[8,0]     0
 UI BND       u[8,0]     1
 LI BND       u[8,1]     0
 UI BND       u[8,1]     1
 LI BND       u[8,2]     0
 UI BND       u[8,2]     1
 LI BND       u[8,3]     0
 UI BND       u[8,3]     1
 LI BND       u[8,4]     0
 UI BND       u[8,4]     1
 LI BND       u[8,5]     0
 UI BND       u[8,5]     1
 LI BND       u[8,6]     0
 UI BND       u[8,6]     1
 LI BND       u[8,7]     0
 UI BND       u[8,7]     1
ENDATA
